c FILE /home/rafael/Documents/HappySet/MIHS/inputs/happygen/output/graph_scale_free_k5_p0.4_v100_20241127_083846.txt
c SOURCE This is a scale-free graph formed for the happy graph colouring problem.
c DESCRIPTION It was generated using the problem generator of Rhyd Lewis
c
c GRAPH STATS
c Seed                             = -1110620729
c Number of Nodes                  = 100
c Number of colours k              = 5
c Number of pre-assignments        = 40
c Number of links per new node     = 5
c Density                          = 0.0979798
c 
c The degrees of nodes 1 to 100, respectively, are as follows 
c [42, 37, 34, 33, 28, 22, 21, 21, 20, 19, 18, 17, 16, 15, 15, 14, 13, 12, 12, 12, 12, 11, 11, 11, 11, 11, 
c  11, 11, 11, 10, 10, 9, 9, 9, 9, 8, 8, 8, 8, 8, 8, 7, 7, 7, 7, 7, 7, 7, 7, 7, 7, 
c  7, 7, 7, 7, 7, 7, 6, 6, 6, 6, 6, 6, 6, 6, 6, 6, 6, 6, 6, 6, 6, 6, 6, 6, 5, 
c  5, 5, 5, 5, 5, 5, 5, 5, 5, 5, 5, 5, 5, 5, 5, 5, 5, 5, 5, 5, 5, 5, 5, 5] 
c  
p edge 100 485 5
e 1 2
e 1 3
e 1 4
e 1 5
e 1 7
e 1 8
e 1 13
e 1 14
e 1 15
e 1 18
e 1 19
e 1 22
e 1 24
e 1 25
e 1 27
e 1 28
e 1 32
e 1 36
e 1 37
e 1 39
e 1 44
e 1 45
e 1 46
e 1 48
e 1 49
e 1 53
e 1 54
e 1 57
e 1 59
e 1 64
e 1 65
e 1 66
e 1 68
e 1 70
e 1 73
e 1 74
e 1 79
e 1 80
e 1 83
e 1 89
e 1 99
e 1 100
e 2 3
e 2 4
e 2 5
e 2 6
e 2 7
e 2 8
e 2 12
e 2 13
e 2 14
e 2 15
e 2 16
e 2 20
e 2 21
e 2 22
e 2 26
e 2 27
e 2 29
e 2 33
e 2 36
e 2 38
e 2 39
e 2 43
e 2 52
e 2 55
e 2 56
e 2 57
e 2 59
e 2 68
e 2 77
e 2 79
e 2 81
e 2 87
e 2 89
e 2 90
e 2 91
e 2 98
e 3 4
e 3 6
e 3 7
e 3 8
e 3 9
e 3 10
e 3 11
e 3 12
e 3 14
e 3 17
e 3 18
e 3 19
e 3 25
e 3 26
e 3 27
e 3 30
e 3 32
e 3 33
e 3 37
e 3 41
e 3 43
e 3 48
e 3 60
e 3 64
e 3 70
e 3 76
e 3 77
e 3 81
e 3 92
e 3 96
e 3 97
e 3 98
e 4 5
e 4 6
e 4 7
e 4 8
e 4 9
e 4 11
e 4 14
e 4 15
e 4 21
e 4 23
e 4 26
e 4 27
e 4 33
e 4 37
e 4 38
e 4 40
e 4 44
e 4 46
e 4 48
e 4 50
e 4 51
e 4 53
e 4 56
e 4 58
e 4 63
e 4 66
e 4 70
e 4 78
e 4 82
e 4 89
e 5 6
e 5 7
e 5 9
e 5 10
e 5 14
e 5 16
e 5 18
e 5 23
e 5 24
e 5 26
e 5 28
e 5 30
e 5 31
e 5 32
e 5 35
e 5 36
e 5 39
e 5 47
e 5 51
e 5 71
e 5 72
e 5 82
e 5 83
e 5 87
e 5 88
e 6 7
e 6 9
e 6 12
e 6 13
e 6 15
e 6 19
e 6 24
e 6 30
e 6 32
e 6 33
e 6 42
e 6 50
e 6 55
e 6 59
e 6 61
e 6 74
e 6 79
e 6 82
e 7 8
e 7 9
e 7 11
e 7 13
e 7 14
e 7 15
e 7 22
e 7 23
e 7 26
e 7 28
e 7 34
e 7 35
e 7 43
e 7 60
e 7 74
e 8 16
e 8 20
e 8 22
e 8 23
e 8 25
e 8 27
e 8 41
e 8 56
e 8 59
e 8 65
e 8 66
e 8 67
e 8 68
e 8 92
e 8 94
e 8 96
e 9 13
e 9 20
e 9 21
e 9 22
e 9 23
e 9 33
e 9 35
e 9 52
e 9 58
e 9 60
e 9 62
e 9 64
e 9 65
e 9 77
e 9 78
e 10 13
e 10 14
e 10 17
e 10 18
e 10 25
e 10 41
e 10 42
e 10 45
e 10 49
e 10 52
e 10 57
e 10 71
e 10 76
e 10 78
e 10 80
e 10 91
e 10 95
e 11 13
e 11 17
e 11 19
e 11 24
e 11 37
e 11 39
e 11 43
e 11 44
e 11 51
e 11 62
e 11 68
e 11 80
e 11 85
e 11 86
e 11 96
e 12 18
e 12 21
e 12 31
e 12 36
e 12 38
e 12 45
e 12 61
e 12 63
e 12 65
e 12 69
e 12 74
e 12 75
e 12 79
e 12 99
e 13 17
e 13 25
e 13 38
e 13 41
e 13 47
e 13 54
e 13 57
e 13 65
e 13 67
e 14 16
e 14 18
e 14 29
e 14 37
e 14 39
e 14 40
e 14 42
e 14 81
e 15 43
e 15 45
e 15 46
e 15 67
e 15 83
e 15 84
e 15 87
e 15 88
e 15 89
e 15 92
e 16 18
e 16 29
e 16 30
e 16 49
e 16 61
e 16 62
e 16 67
e 16 81
e 16 85
e 16 98
e 17 20
e 17 40
e 17 47
e 17 53
e 17 61
e 17 63
e 17 72
e 17 87
e 17 100
e 18 21
e 18 23
e 18 28
e 18 29
e 18 34
e 19 25
e 19 34
e 19 40
e 19 50
e 19 76
e 19 90
e 19 93
e 19 97
e 20 28
e 20 33
e 20 63
e 20 66
e 20 73
e 20 77
e 20 86
e 20 93
e 21 47
e 21 60
e 21 69
e 21 76
e 21 80
e 21 84
e 21 95
e 22 24
e 22 28
e 22 36
e 22 63
e 22 70
e 22 73
e 23 24
e 23 41
e 23 44
e 23 75
e 23 77
e 24 31
e 24 40
e 24 48
e 24 56
e 24 97
e 25 32
e 25 35
e 25 55
e 25 80
e 25 90
e 26 31
e 26 36
e 26 42
e 26 47
e 26 60
e 26 75
e 27 30
e 27 38
e 27 44
e 27 49
e 27 62
e 27 75
e 28 29
e 28 46
e 28 76
e 28 78
e 28 82
e 29 46
e 29 54
e 29 73
e 29 79
e 29 83
e 29 99
e 30 64
e 30 67
e 30 88
e 30 95
e 30 99
e 31 34
e 31 42
e 31 45
e 31 51
e 31 85
e 31 87
e 32 42
e 32 58
e 32 72
e 32 97
e 33 52
e 33 98
e 33 100
e 34 42
e 34 62
e 34 84
e 34 93
e 34 96
e 35 37
e 35 50
e 35 81
e 35 92
e 35 100
e 36 59
e 36 69
e 37 58
e 37 61
e 38 66
e 38 68
e 38 72
e 39 49
e 39 74
e 39 99
e 40 53
e 40 69
e 40 97
e 41 51
e 41 56
e 41 90
e 43 58
e 43 91
e 44 57
e 44 78
e 45 54
e 45 64
e 46 54
e 46 85
e 47 52
e 47 71
e 48 50
e 48 59
e 48 84
e 49 55
e 49 84
e 50 82
e 50 86
e 51 70
e 51 71
e 52 53
e 52 86
e 53 95
e 53 100
e 54 69
e 54 95
e 55 63
e 55 94
e 55 98
e 56 91
e 56 96
e 57 93
e 57 94
e 58 83
e 60 88
e 61 71
e 62 86
e 64 72
e 65 90
e 66 94
e 67 94
e 68 85
e 69 88
e 70 73
e 71 89
e 72 91
e 73 75
e 74 92
e 75 93
n 2 2
n 13 2
n 16 2
n 18 2
n 19 1
n 24 1
n 31 1
n 32 3
n 33 2
n 35 2
n 40 1
n 41 2
n 46 4
n 47 2
n 53 1
n 57 2
n 58 3
n 60 4
n 61 2
n 64 3
n 65 2
n 66 4
n 67 2
n 70 5
n 72 3
n 75 5
n 76 1
n 77 2
n 78 2
n 79 2
n 81 2
n 82 3
n 83 3
n 84 4
n 86 1
n 88 4
n 89 2
n 95 1
n 96 4
n 99 2
